SCIP Status        : solving was interrupted [time limit reached]
Total Time         :    3600.00
  solving          :    3600.00
  presolving       :       0.25 (included in solving)
  reading          :       0.00
  copying          :       0.39 (41 #copies) (minimal 0.00, maximal 0.02, average 0.01)
Original Problem   :
  Problem name     : bbbenchmark/g05_60.9.cut
  Variables        : 61 (60 binary, 0 integer, 0 implicit integer, 1 continuous)
  Constraints      : 1 initial, 1 maximal
  Objective        : minimize, 1 non-zeros (abs.min = 1, abs.max = 1)
Presolved Problem  :
  Problem name     : t_bbbenchmark/g05_60.9.cut
  Variables        : 946 (60 binary, 0 integer, 885 implicit integer, 1 continuous)
  Constraints      : 886 initial, 6473 maximal
  Objective        : minimize, 1 non-zeros (abs.min = 1, abs.max = 1)
  Nonzeros         : 3601 constraint, 122 clique table
Presolvers         :   ExecTime  SetupTime  Calls  FixedVars   AggrVars   ChgTypes  ChgBounds   AddHoles    DelCons    AddCons   ChgSides   ChgCoefs
  boundshift       :       0.00       0.00      0          0          0          0          0          0          0          0          0          0
  convertinttobin  :       0.00       0.00      0          0          0          0          0          0          0          0          0          0
  domcol           :       0.00       0.00      1          0          0          0          0          0          0          0          0          0
  dualagg          :       0.00       0.00      0          0          0          0          0          0          0          0          0          0
  dualcomp         :       0.00       0.00      1          0          0          0          0          0          0          0          0          0
  dualinfer        :       0.00       0.00      0          0          0          0          0          0          0          0          0          0
  dualsparsify     :       0.00       0.00      1          0          0          0          0          0          0          0          0          0
  gateextraction   :       0.00       0.00      0          0          0          0          0          0          0          0          0          0
  implics          :       0.00       0.00      2          0          0          0          0          0          0          0          0          0
  inttobinary      :       0.00       0.00      0          0          0          0          0          0          0          0          0          0
  qpkktref         :       0.00       0.00      0          0          0          0          0          0          0          0          0          0
  redvub           :       0.00       0.00      0          0          0          0          0          0          0          0          0          0
  sparsify         :       0.00       0.00      1          0          0          0          0          0          0          0          0          0
  stuffing         :       0.00       0.00      0          0          0          0          0          0          0          0          0          0
  trivial          :       0.00       0.00      4          0          0          0          0          0          0          0          0          0
  tworowbnd        :       0.00       0.00      0          0          0          0          0          0          0          0          0          0
  dualfix          :       0.00       0.00      4          0          0          0          0          0          0          0          0          0
  genvbounds       :       0.00       0.00      0          0          0          0          0          0          0          0          0          0
  probing          :       0.12       0.00      1          0          0          0          0          0          0          0          0          0
  pseudoobj        :       0.00       0.00      1          0          0          0          1          0          0          0          0          0
  symmetry         :       0.00       0.00      0          0          0          0          0          0          0          0          0          0
  vbounds          :       0.00       0.00      1          0          0          0          0          0          0          0          0          0
  and              :       0.01       0.01      2          0          0          0          0          0          0          0          0          0
  linear           :       0.00       0.00      2          0          0          0          0          0          0          0          0          0
  logicor          :       0.00       0.00      0          0          0          0          0          0          0          0          0          0
  nonlinear        :       0.12       0.00      5          0          0          0          1          0          0        885          0          0
  benders          :       0.00       0.00      0          0          0          0          0          0          0          0          0          0
  components       :       0.00       0.00      1          0          0          0          0          0          0          0          0          0
  root node        :          -          -      -          0          -          -         51          -          -          -          -          -
Constraints        :     Number  MaxNumber  #Separate #Propagate    #EnfoLP    #EnfoRelax  #EnfoPS    #Check   #ResProp    Cutoffs    DomReds       Cuts    Applied      Conss   Children
  benderslp        :          0          0          0          0      98514          0          0       6097          0          0          0          0          0          0          0
  integral         :          0          0          0          0      98514          0          0       6097          0          0       9806          0          0       5119     191620
  and              :        885        885     108279     630430         11          0          0         37     111810         63    3913095       3067       2850          0          0
  linear           :          1+         3        172     630367         11          0          0         35          0          0          0          0          0          0          0
  logicor          :          0+      5587          0     163460          0          0          0          0       1819        984        230          0          0          0          0
  benders          :          0          0          0          0         11          0          0         38          0          0          0          0          0          0          0
  countsols        :          0          0          0          0         11          0          0         38          0          0          0          0          0          0          0
  components       :          0          0          0          0          0          0          0          0          0          0          0          0          0          0          0
Constraint Timings :  TotalTime  SetupTime   Separate  Propagate     EnfoLP     EnfoPS     EnfoRelax   Check    ResProp    SB-Prop
  benderslp        :       0.14       0.00       0.00       0.00       0.13       0.00       0.00       0.01       0.00       0.00
  integral         :      43.38       0.00       0.00       0.00      43.38       0.00       0.00       0.00       0.00       0.00
  and              :      44.35       0.01      27.52      16.31       0.00       0.00       0.00       0.00       0.08       0.43
  linear           :       0.47       0.00       0.05       0.40       0.00       0.00       0.00       0.00       0.00       0.02
  logicor          :       7.00       0.00       0.00       6.97       0.00       0.00       0.00       0.00       0.00       0.03
  benders          :       0.00       0.00       0.00       0.00       0.00       0.00       0.00       0.00       0.00       0.00
  countsols        :       0.00       0.00       0.00       0.00       0.00       0.00       0.00       0.00       0.00       0.00
  components       :       0.11       0.00       0.00       0.11       0.00       0.00       0.00       0.00       0.00       0.00
Propagators        : #Propagate   #ResProp    Cutoffs    DomReds
  dualfix          :          4          0          0          0
  genvbounds       :          0          0          0          0
  nlobbt           :          0          0          0          0
  obbt             :          0          0          0          0
  probing          :          0          0          0          0
  pseudoobj        :     527730          0          0         52
  redcost          :     238568          0          0     633130
  rootredcost      :         28          0          0          0
  symmetry         :          0          0          0          0
  vbounds          :      63305          0          0          0
Propagator Timings :  TotalTime  SetupTime   Presolve  Propagate    ResProp    SB-Prop
  dualfix          :       0.00       0.00       0.00       0.00       0.00       0.00
  genvbounds       :       0.35       0.00       0.00       0.34       0.00       0.01
  nlobbt           :       0.00       0.00       0.00       0.00       0.00       0.00
  obbt             :       0.00       0.00       0.00       0.00       0.00       0.00
  probing          :       0.12       0.00       0.12       0.00       0.00       0.00
  pseudoobj        :       0.72       0.00       0.00       0.72       0.00       0.00
  redcost          :       6.55       0.00       0.00       6.54       0.00       0.01
  rootredcost      :       0.33       0.00       0.00       0.33       0.00       0.00
  symmetry         :       0.35       0.00       0.00       0.35       0.00       0.00
  vbounds          :       0.34       0.00       0.00       0.32       0.00       0.02
Conflict Analysis  :       Time      Calls    Success    DomReds  Conflicts   Literals    Reconvs ReconvLits   Dualrays   Nonzeros   LP Iters   (pool size: [10000,10000])
  propagation      :       0.02       1047        668          -        786       25.6          0        0.0          -          -          -
  infeasible LP    :       0.00          0          0          -          0        0.0          0        0.0          2       47.5          0
  bound exceed. LP :      12.81      11969       8937          -      50983       33.6         15       22.3          0        0.0      66576
  strong branching :       0.00          0          0          -          0        0.0          0        0.0          -          -          0
  pseudo solution  :       0.00          0          0          -          0        0.0          0        0.0          -          -          -
  applied globally :       0.12          -          -          0      22271       32.9          -          -          2          -          -
  applied locally  :          -          -          -          0          0        0.0          -          -          0          -          -
Separators         :   ExecTime  SetupTime      Calls  RootCalls    Cutoffs    DomReds  FoundCuts ViaPoolAdd  DirectAdd    Applied ViaPoolApp  DirectApp      Conss
  cut pool         :       1.62          -      15392        201          -          -      21018     448560          -          -          -          -          -    (maximal pool size:       1381)
  aggregation      :     233.22       0.00       4557        172          0          0         11         16          0         11         11          0          0
  > cmir           :          -          -          -          -          -          -          -         16          0         11         11          0          -
  > flowcover      :          -          -          -          -          -          -          -          0          0          0          0          0          -
  > knapsackcover  :          -          -          -          -          -          -          -          0          0          0          0          0          -
  cgmip            :       0.00       0.00          0          0          0          0          0          0          0          0          0          0          0
  clique           :       0.00       0.00        172        172          0          0          0          0          0          0          0          0          0
  closecuts        :       0.00       0.00          0          0          0          0          0          0          0          0          0          0          0
  convexproj       :       0.00       0.00          0          0          0          0          0          0          0          0          0          0          0
  disjunctive      :       0.00       0.00          0          0          0          0          0          0          0          0          0          0          0
  eccuts           :       0.00       0.00          0          0          0          0          0          0          0          0          0          0          0
  gauge            :       0.00       0.00          0          0          0          0          0          0          0          0          0          0          0
  gomory           :       0.00       0.00          0          0          0          0          0          0          0          0          0          0          0
  > gomorymi       :          -          -          -          -          -          -          -          0          0          0          0          0          -
  > strongcg       :          -          -          -          -          -          -          -          0          0          0          0          0          -
  impliedbounds    :       0.04       0.00       4557        172          0          0          5          0          0          0          0          0          0
  interlattice     :       0.21       0.00         80         80          0          0         80          0         80         79          0         79          0
  interminor       :       0.00       0.00          0          0          0          0          0          0          0          0          0          0          0
  intersub         :       0.37       0.00         40         40          0          0         40          0         40         40          0         40          0
  intobj           :       0.00       0.00          0          0          0          0          0          0          0          0          0          0          0
  mcf              :       0.00       0.00          1          1          0          0          0          0          0          0          0          0          0
  minor            :       0.00       0.00          0          0          0          0          0          0          0          0          0          0          0
  mixing           :       0.00       0.00       4557        172          0          0          0          0          0          0          0          0          0
  oddcycle         :       0.00       0.00          0          0          0          0          0          0          0          0          0          0          0
  rapidlearning    :       0.01       0.00          0          0          0          0          0          0          0          0          0          0          0
  rlt              :       0.01       0.00         10         10          0          0          0          0          0          0          0          0          0
  zerohalf         :      12.98       0.00       3609         20          0          0      21002     448544          0      69645      69645          0          0
Cutselectors       :   ExecTime  SetupTime      Calls  RootCalls   Selected     Forced   Filtered  RootSelec   RootForc   RootFilt 
  hybrid           :       0.25       0.00      11096        170      72625          0     379122        319          0         13
Pricers            :   ExecTime  SetupTime      Calls       Vars
  problem variables:       0.00          -          0          0
Branching Rules    :   ExecTime  SetupTime   BranchLP  BranchExt   BranchPS    Cutoffs    DomReds       Cuts      Conss   Children
  allfullstrong    :       0.00       0.00          0          0          0          0          0          0          0          0
  cloud            :       0.00       0.00          0          0          0          0          0          0          0          0
  distribution     :       0.00       0.00          0          0          0          0          0          0          0          0
  fullstrong       :       0.00       0.00          0          0          0          0          0          0          0          0
  inference        :       0.00       0.00          0          0          0          0          0          0          0          0
  leastinf         :       0.00       0.00          0          0          0          0          0          0          0          0
  lookahead        :       0.00       0.00          0          0          0          0          0          0          0          0
  mostinf          :       0.00       0.00          0          0          0          0          0          0          0          0
  multaggr         :       0.00       0.00          0          0          0          0          0          0          0          0
  nodereopt        :       0.00       0.00          0          0          0          0          0          0          0          0
  pscost           :       0.00       0.00          0          0          0          0          0          0          0          0
  random           :       0.00       0.00          0          0          0          0          0          0          0          0
  relpscost        :      43.12       0.00      98503          0          0          0       9806          0       5130     191620
  vanillafullstrong:       0.00       0.00          0          0          0          0          0          0          0          0
Primal Heuristics  :   ExecTime  SetupTime      Calls      Found       Best
  LP solutions     :       0.00          -          -         11         11
  relax solutions  :       0.00          -          -          0          0
  pseudo solutions :       0.00          -          -          0          0
  strong branching :       0.00          -          -          1          1
  actconsdiving    :       0.00       0.00          0          0          0
  adaptivediving   :       7.78       0.00        422          1          1
  alns             :       1.62       0.00         30          5          4
  bound            :       0.00       0.00          0          0          0
  clique           :       0.01       0.00          1          0          0
  coefdiving       :       0.00       0.00          0          0          0
  completesol      :       0.00       0.00          0          0          0
  conflictdiving   :       5.22       0.00        375          0          0
  crossover        :       0.03       0.00          1          1          1
  dins             :       0.00       0.00          0          0          0
  distributiondivin:      17.39       0.00        376          0          0
  dps              :       0.00       0.00          0          0          0
  dualval          :       0.00       0.00          0          0          0
  farkasdiving     :       0.01       0.00          0          0          0
  feaspump         :       0.03       0.00          0          0          0
  fixandinfer      :       0.00       0.00          0          0          0
  fracdiving       :       8.09       0.00        376          0          0
  gins             :       0.07       0.00          0          0          0
  guideddiving     :       7.98       0.00        376          3          3
  indicator        :       0.06       0.00          0          0          0
  indicatordiving  :       0.00       0.00          0          0          0
  intdiving        :       0.00       0.00          0          0          0
  intshifting      :       0.07       0.00         19          0          0
  linesearchdiving :       7.49       0.00        376          0          0
  localbranching   :       0.00       0.00          0          0          0
  locks            :       0.00       0.00          1          0          0
  lpface           :       0.09       0.00          0          0          0
  mpec             :       0.78       0.00          1          0          0
  multistart       :       0.00       0.00          0          0          0
  mutation         :       0.00       0.00          0          0          0
  nlpdiving        :       2.14       0.00         10          0          0
  objpscostdiving  :      11.40       0.00         61         10          5
  octane           :       0.00       0.00          0          0          0
  ofins            :       0.10       0.00          0          0          0
  oneopt           :       0.11       0.00         38          0          0
  padm             :       0.00       0.00          0          0          0
  proximity        :       0.00       0.00          0          0          0
  pscostdiving     :       9.22       0.00        375          2          2
  randrounding     :       0.64       0.00       6055          0          0
  rens             :       0.00       0.00          0          0          0
  reoptsols        :       0.00       0.00          0          0          0
  repair           :       0.00       0.00          0          0          0
  rins             :       1.92       0.00         12          0          0
  rootsoldiving    :       5.33       0.00         25          1          0
  rounding         :       0.48       0.00       4604          0          0
  shiftandpropagate:       0.00       0.00          0          0          0
  shifting         :      14.72       0.00      11043          9          9
  simplerounding   :       0.10       0.00          0          0          0
  subnlp           :      59.60       0.00          0          0          0
  trivial          :       0.00       0.00          2          2          2
  trivialnegation  :       0.00       0.00          0          0          0
  trustregion      :       0.00       0.00          0          0          0
  trysol           :       0.19       0.00          0          0          0
  twoopt           :       0.00       0.00          0          0          0
  undercover       :       0.13       0.00          1          0          0
  vbounds          :       0.00       0.00          0          0          0
  veclendiving     :       4.52       0.00        376          0          0
  zeroobj          :       0.00       0.00          0          0          0
  zirounding       :       0.19       0.00       1000          0          0
  other solutions  :          -          -          -          0          -
Diving (single)    :      Calls      Nodes   LP Iters Backtracks  Conflicts   MinDepth   MaxDepth   AvgDepth  RoundSols  NLeafSols  MinSolDpt  MaxSolDpt  AvgSolDpt
  actconsdiving    :          0          -          -          -          -          -          -          -          -          -          -          -          -
  coefdiving       :          0          -          -          -          -          -          -          -          -          -          -          -          -
  conflictdiving   :        375       6878      52935        396       5542         20         49       32.2          0          -          -          -          -
  distributiondivin:        376       4569     140568        603       4487         20         37       25.5          0          -          -          -          -
  farkasdiving     :          0          -          -          -          -          -          -          -          -          -          -          -          -
  fracdiving       :        376      40038     107587        262       1677         25        213      120.9          0          -          -          -          -
  guideddiving     :        376      36600     106721        236       1746         27        210      111.7          0          3         63         86       76.7
  indicatordiving  :          0          -          -          -          -          -          -          -          -          -          -          -          -
  linesearchdiving :        376       9517      99326        455       6364         25         55       39.3          0          -          -          -          -
  pscostdiving     :        375       6519     124848        385       6069         23         45       31.5          0          2         42         45       43.5
  veclendiving     :        376       6788      40482        384       6070         19         47       32.1          0          -          -          -          -
Diving (adaptive)  :      Calls      Nodes   LP Iters Backtracks  Conflicts   MinDepth   MaxDepth   AvgDepth  RoundSols  NLeafSols  MinSolDpt  MaxSolDpt  AvgSolDpt
  actconsdiving    :         40        493      16603         80        488         21         32       24.9          0          1         31         31       31.0
  coefdiving       :        102       1873      10176        104       1487         23         47       32.5          0          -          -          -          -
  conflictdiving   :          0          -          -          -          -          -          -          -          -          -          -          -          -
  distributiondivin:          0          -          -          -          -          -          -          -          -          -          -          -          -
  farkasdiving     :          0          -          -          -          -          -          -          -          -          -          -          -          -
  fracdiving       :         26       3250       7170         23        113         35        189      139.3          0          -          -          -          -
  guideddiving     :         35       3681       6994         24        152         44        159      120.1          0          -          -          -          -
  indicatordiving  :          0          -          -          -          -          -          -          -          -          -          -          -          -
  linesearchdiving :         61       1545      16375         71       1004         29         50       39.2          0          -          -          -          -
  pscostdiving     :         71       1172      21892         71       1003         23         40       31.0          0          -          -          -          -
  veclendiving     :         87       1535       5452         87       1102         21         43       31.8          0          -          -          -          -
Neighborhoods      :      Calls  SetupTime  SolveTime SolveNodes       Sols       Best       Exp3  EpsGreedy        UCB TgtFixRate  Opt  Inf Node Stal  Sol  Usr Othr Actv
  rens             :          2       0.02       0.00          0          0          0    0.00000   -1.00000    0.30241      0.700    0    1    0    0    0    0    1    1
  rins             :          3       0.03       0.01          3          0          0    0.00000   -1.00000    0.37359      0.550    0    2    0    0    0    0    1    1
  mutation         :          6       0.11       0.23        119          1          1    0.00000   -1.00000    0.51575      0.562    1    3    0    2    0    0    0    1
  localbranching   :          3       0.03       0.10         71          0          0    0.00000   -1.00000    0.46030      0.662    0    2    0    1    0    0    0    1
  crossover        :          3       0.04       0.11         56          0          0    0.00000   -1.00000    0.46556      0.437    0    3    0    0    0    0    0    1
  proximity        :          5       0.13       0.36        109          2          1    0.00000   -1.00000    0.52711      0.515    1    3    0    1    0    0    0    1
  zeroobjective    :          3       0.06       0.08         63          0          0    0.00000   -1.00000    0.46417      0.662    0    2    0    1    0    0    0    1
  dins             :          5       0.08       0.15         89          2          2    0.00000   -1.00000    0.50916      0.501    2    1    0    1    0    0    1    1
  trustregion      :          0       0.00       0.00          0          0          0    0.00000   -1.00000    1.00000      0.900    0    0    0    0    0    0    0    0
Expressions        :   #IntEval  IntEvalTi   #RevProp  RevPropTi    DomReds    Cutoffs  #Estimate  EstimTime  Branching  #Simplify SimplifyTi Simplified
  pow              :          0       0.00          0       0.00          0          0          0       0.00          0          0       0.00          0
  prod             :       3540       0.02          0       0.00          0          0          0       0.00          0       2655       0.00          0
  sum              :          8       0.02          2       0.00          0          0          0       0.00          0          3       0.00          2
  var              :       3327       0.00          0       0.00          0          0          0       0.00          0       6378       0.00          0
  varidx           :          0       0.00          0       0.00          0          0          0       0.00          0          0       0.00          0
LP                 :       Time      Calls Iterations  Iter/call   Iter/sec  Time-0-It Calls-0-It    ItLimit
  primal LP        :     172.85      19281          0       0.00       0.00     172.77      19281
  dual LP          :    2793.09     229882   29314886     147.00   10495.50       7.66      30466
  lex dual LP      :       0.00          0          0       0.00          -
  barrier LP       :       0.00          0          0       0.00          -       0.00          0
  resolve instable :       0.00          0          0       0.00          -
  diving/probing LP:      60.60       9184     958697     104.39   15820.08
  strong branching :      24.13       5294     373796      70.61   15490.92          -          -         41
    (at root node) :          -         20      11568     578.40          -
  conflict analysis:       7.57       6721      66576       9.91    8794.72
NLP relaxation     :
  solve time       :       2.14 (10 calls)
  convexity        :  nonconvex (1 linear rows, 0 convex ineq., 0 nonconvex ineq., 885 nonlinear eq. or two-sided ineq.)
NLP Solvers        :  #Problems  ProblemTi    #Solves  SolveTime      #Iter  Time/Iter      #Okay #TimeLimit #IterLimit #LObjLimit #Interrupt  #NumError #EvalError  #OutOfMem #LicenseEr #OtherTerm   #GlobOpt    #LocOpt  #Feasible #LocInfeas #GlobInfea #Unbounded   #Unknown
  ipopt            :          2       4.92         13       2.97        312       0.01         13          0          0          0          0          0          0          0          0          0          0          0          0          3          0          0         10
B&B Tree           :
  number of runs   :          1
  nodes            :     185864 (95810 internal, 90054 leaves)
  feasible leaves  :         11
  infeas. leaves   :        238
  objective leaves :      89804
  nodes (total)    :     185864 (95810 internal, 90054 leaves)
  nodes left       :       5735
  max depth        :         36
  max depth (total):         36
  backtracks       :      49416 (26.6%)
  early backtracks :          0 (0.0%)
  nodes exc. ref.  :          0 (0.0%)
  delayed cutoffs  :          8
  repropagations   :       5183 (827 domain reductions, 1 cutoffs)
  avg switch length:       4.50
  switching time   :     198.12
Estim. Tree Size   :     404438
Estimation Tree    : 191621 nodes (185886 visited, 95810 internal, 90076 leaves, 5735 open), weight: 0.4077 completed 0.6120
Estimations        :      estim      value      trend resolution     smooth
  wbe              :     441837          -          -          -          -
  tree-profile     :         -1          -          -          -          -
  gap              :     632555    0.93100    0.00004        128     620974
  tree-weight      :     404438    0.40773    0.00068        128     403139
  leaf-frequency   :     499520    0.48457    0.00001        128     509721
  ssg              :     423613    0.26967   -0.00028        128     419699
  open-nodes       :     508064 5735.00000   -4.47478        128     515547
Root Node          :
  First LP value   : -1.00000000000000e+00
  First LP Iters   :        638 (21266.67 Iter/sec)
  First LP Time    :       0.03
  Final Dual Bound : -8.73922706347598e-01
  Final Root Iters :       7001
  Root LP Estimate : -5.25303918456933e-01
Solution           :
  Solutions found  :         46 (39 improvements)
  First Solution   : +1.00000000000000e+05   (in run 1, after 0 nodes, 0.00 seconds, depth 0, found by <trivial>)
  Gap First Sol.   :   infinite
  Gap Last Sol.    :      21.67 %
  Primal Bound     : -6.02259887005650e-01   (in run 1, after 27201 nodes, 456.73 seconds, depth 26, found by <relaxation>)
  Dual Bound       : -6.46892655367232e-01
  Gap              :       7.41 %
Integrals          :      Total       Avg%
  primal-dual      :   43449.66      12.07
  primal-ref       :          -          - (not evaluated)
  dual-ref         :          -          - (not evaluated)
